c preprocessed version of pcb442.tsp, 425 vertices, 1251 edges
p td 425 1251
1 0
0 93
0 92
0 94
0 90
0 88
0 86
0 84
0 82
0 80
0 78
0 76
0 74
0 72
0 70
1 2
1 3
1 421
1 420
1 419
1 418
1 6
1 7
1 10
1 11
1 12
1 13
1 14
1 8
1 417
1 416
1 415
1 18
1 19
1 20
1 22
1 24
1 26
1 28
1 30
1 31
1 46
1 48
1 50
1 52
1 54
1 56
1 58
1 60
1 62
1 64
1 66
1 68
1 70
1 94
3 2
155 2
2 302
2 301
2 156
4 3
421 3
3 155
5 4
419 4
152 4
420 4
4 421
4 155
4 154
4 153
6 5
418 5
5 419
5 152
5 151
411 5
7 6
6 418
412 6
411 6
8 7
413 7
412 7
8 9
10 8
8 413
10 9
142 9
144 9
9 413
412 9
414 9
11 10
10 142
12 11
11 141
11 142
13 12
12 138
12 141
14 13
13 137
13 138
15 14
417 14
14 136
14 137
16 15
416 15
40 15
15 417
15 136
15 41
17 16
415 16
39 16
16 416
16 40
18 17
38 17
17 415
17 39
19 18
18 415
18 38
20 19
19 21
19 38
20 21
20 22
22 21
21 38
21 23
21 37
22 23
22 24
24 23
23 37
23 25
23 36
24 25
24 26
26 25
25 36
25 27
25 35
26 27
26 28
28 27
27 35
27 29
27 34
28 29
28 30
30 29
32 29
29 34
29 33
31 30
30 32
31 32
31 45
31 46
32 33
32 45
32 44
33 34
33 44
33 43
35 34
34 43
36 35
35 39
35 43
37 36
36 39
38 37
37 39
38 39
39 40
39 42
39 43
40 41
40 42
42 41
41 136
41 135
43 42
42 135
44 43
120 43
121 43
43 135
43 134
43 133
43 129
43 128
45 44
44 120
46 45
45 47
45 120
46 47
46 48
48 47
47 120
47 49
47 119
48 49
48 50
50 49
49 119
49 51
49 118
50 51
50 52
52 51
51 118
51 53
51 117
52 53
52 54
54 53
53 117
53 55
53 116
54 55
54 56
56 55
55 116
55 57
55 115
56 57
56 58
58 57
57 115
57 59
57 114
58 59
58 60
60 59
59 114
59 61
59 113
60 61
60 62
62 61
61 113
61 63
61 112
62 63
62 64
64 63
63 112
63 65
63 111
64 65
64 66
66 65
65 111
65 67
65 110
66 67
66 68
68 67
67 110
67 69
67 109
68 69
68 70
70 69
69 109
69 71
69 108
70 71
70 72
72 71
71 108
71 73
71 107
72 73
72 74
74 73
73 107
73 75
73 106
74 75
74 76
76 75
75 106
75 77
75 105
76 77
76 78
78 77
77 105
77 79
77 104
78 79
78 80
80 79
79 104
79 81
79 103
80 81
80 82
82 81
81 103
81 83
81 102
82 83
82 84
84 83
83 102
83 85
83 101
84 85
84 86
86 85
85 101
85 87
85 100
86 87
86 88
88 87
87 100
87 89
87 99
88 89
88 90
90 89
89 99
89 91
89 98
90 91
90 92
92 91
91 98
91 96
91 97
92 93
92 96
94 93
93 96
93 95
94 95
95 96
95 200
95 203
96 97
96 200
98 97
97 199
97 200
99 98
98 197
98 199
100 99
99 196
99 197
101 100
100 195
100 196
102 101
101 195
103 102
102 195
104 103
103 194
103 195
105 104
104 183
104 194
106 105
105 181
105 183
107 106
106 181
108 107
107 180
107 181
109 108
108 178
108 180
110 109
109 178
111 110
110 177
110 178
112 111
111 177
113 112
112 124
112 177
114 113
113 124
115 114
114 124
116 115
115 122
115 123
115 124
117 116
116 122
118 117
117 122
119 118
118 122
120 119
119 121
119 122
120 121
122 121
121 128
121 123
122 123
124 123
123 128
123 127
123 126
123 125
124 125
124 177
124 176
125 126
125 175
125 176
126 127
126 173
126 175
126 174
128 127
130 127
173 127
131 127
127 169
127 170
127 171
127 172
128 129
128 130
130 129
129 133
129 132
129 131
130 131
131 132
131 169
133 132
169 132
132 146
132 167
132 168
133 134
133 146
135 134
139 134
134 140
134 143
134 145
134 146
135 136
135 139
136 137
136 139
137 138
137 139
139 138
138 141
138 140
139 140
141 140
140 142
140 143
141 142
143 142
142 144
143 144
143 145
145 144
144 148
414 144
146 145
145 148
145 147
146 147
146 165
146 166
146 167
147 148
147 410
147 165
148 149
148 160
148 410
148 161
148 164
414 148
150 149
149 158
160 149
149 159
414 149
151 150
150 152
150 153
150 158
414 150
411 150
151 152
411 151
152 153
153 154
153 158
154 155
154 158
155 156
155 157
155 158
157 156
301 156
156 300
156 299
158 157
159 157
157 299
157 298
158 159
160 159
162 159
159 298
159 297
159 295
160 161
160 162
161 162
164 161
161 163
163 162
225 162
227 162
162 295
162 294
162 293
162 292
162 291
164 163
163 224
163 225
165 164
410 164
221 164
164 224
164 223
164 222
166 165
219 165
165 410
165 221
165 220
167 166
218 166
166 219
168 167
170 167
167 218
169 168
168 170
169 170
171 170
170 218
170 217
170 216
172 171
171 216
171 213
171 215
173 172
172 214
172 213
173 174
173 214
175 174
186 174
174 214
174 187
176 175
175 186
177 176
178 176
176 186
176 179
177 178
178 179
178 180
180 179
179 186
179 185
179 182
181 180
180 182
181 182
181 183
183 182
182 185
182 184
183 184
183 192
183 193
183 194
185 184
184 188
184 190
184 191
184 192
185 186
185 188
186 187
186 188
188 187
187 214
187 213
187 212
187 189
188 189
188 190
190 189
189 212
189 211
189 210
191 190
190 210
190 209
192 191
191 209
191 207
191 208
192 193
192 207
194 193
193 207
193 205
193 206
195 194
196 194
194 198
194 205
195 196
197 196
196 198
197 198
197 199
199 198
198 205
198 204
198 202
200 199
199 202
199 201
200 201
200 203
201 202
201 203
203 202
202 204
203 204
203 348
203 347
203 349
203 350
203 351
203 352
203 353
360 203
205 204
204 348
205 206
205 348
207 206
206 346
206 348
206 347
207 208
207 346
209 208
208 263
208 346
208 345
210 209
209 262
209 263
210 211
210 261
210 262
211 212
211 260
211 261
213 212
212 238
212 239
212 259
212 260
214 213
213 215
213 238
216 215
215 237
215 238
216 217
216 237
217 218
217 234
217 236
217 237
218 219
218 233
218 234
219 220
219 233
219 409
220 221
220 409
220 231
221 222
221 231
221 230
222 223
222 226
222 229
222 230
224 223
223 225
223 226
224 225
226 225
225 227
226 227
226 228
226 229
228 227
249 227
227 291
227 290
227 289
227 288
229 228
248 228
247 228
228 249
230 229
229 248
231 230
230 248
230 247
230 246
230 245
232 231
409 231
231 244
231 245
233 232
235 232
232 409
232 243
232 244
234 233
233 409
233 235
234 235
234 236
236 235
235 242
235 243
237 236
236 242
236 241
238 237
237 241
237 240
237 239
238 239
239 240
239 258
239 259
240 241
240 242
240 258
240 257
241 242
242 243
242 257
242 256
243 244
243 256
243 255
244 245
244 255
244 254
245 246
245 251
245 252
245 253
245 254
247 246
246 249
246 250
246 251
248 247
247 249
250 249
249 288
249 287
249 286
249 285
251 250
252 250
253 250
250 285
251 252
252 253
254 253
253 285
253 284
255 254
281 254
254 284
254 283
254 282
256 255
255 281
255 280
257 256
256 280
256 268
258 257
267 257
257 268
259 258
258 267
260 259
259 267
259 266
260 261
260 266
262 261
261 266
261 265
261 264
262 263
262 264
263 264
263 345
263 344
264 265
264 274
264 344
264 343
266 265
274 265
270 265
265 271
265 272
265 273
266 267
266 270
267 268
267 269
267 270
269 268
271 268
272 268
268 280
268 279
268 278
268 277
270 269
269 271
270 271
271 272
273 272
272 276
272 277
274 273
273 276
273 275
274 275
274 343
274 342
275 276
275 342
275 341
276 277
276 341
276 340
277 278
277 338
277 340
277 339
279 278
334 278
278 336
278 337
278 338
279 280
279 334
280 281
280 334
281 282
281 333
281 334
283 282
282 333
282 331
282 332
284 283
283 285
283 328
283 331
284 285
285 286
285 321
285 323
285 325
285 327
285 328
287 286
286 319
286 320
286 321
288 287
287 318
287 319
289 288
288 317
288 318
290 289
289 316
289 317
291 290
290 315
290 316
292 291
291 314
291 315
293 292
292 313
292 314
294 293
293 312
293 313
295 294
294 311
294 312
295 296
295 297
295 311
297 296
296 307
296 305
296 311
310 296
298 297
297 307
298 299
298 306
298 307
299 300
299 303
299 304
299 306
299 305
301 300
300 302
300 303
301 302
302 303
302 304
303 304
305 304
308 304
306 305
307 305
308 305
309 305
310 305
306 307
308 309
408 308
310 309
408 309
310 311
310 312
310 313
310 408
406 310
407 310
311 312
312 313
313 314
406 313
314 315
406 314
315 316
406 315
405 315
316 317
404 316
405 316
317 318
404 317
318 319
404 318
319 320
404 319
402 319
403 319
321 320
320 322
402 320
321 322
321 323
323 322
322 324
402 322
323 324
323 325
325 324
324 326
325 326
325 327
327 326
328 326
326 329
327 328
328 329
328 330
328 331
330 329
329 396
331 330
330 396
330 376
395 330
332 331
331 376
331 375
333 332
335 332
336 332
337 332
332 375
332 374
334 333
333 335
334 335
334 336
335 336
336 337
338 337
337 374
337 366
339 338
338 366
338 401
340 339
355 339
339 401
339 365
339 364
339 357
339 358
341 340
340 355
340 354
342 341
341 353
341 354
343 342
342 352
342 353
344 343
343 351
343 352
345 344
344 350
344 351
346 345
345 349
345 350
346 347
346 349
348 347
347 349
349 350
350 351
351 352
352 353
353 354
360 353
354 355
354 356
360 354
356 355
355 357
356 357
356 359
360 356
357 358
357 359
359 358
358 363
358 364
358 362
358 361
360 358
360 359
360 361
360 388
400 360
399 360
362 361
361 368
361 388
363 362
369 362
362 368
364 363
363 370
363 369
365 364
364 370
366 365
401 365
365 370
366 367
366 374
366 401
366 370
367 368
374 367
367 373
370 367
369 367
367 372
367 371
369 368
371 368
368 384
368 385
368 386
368 387
368 388
370 369
372 371
371 383
371 384
373 372
372 382
372 383
374 373
380 373
373 381
373 382
374 375
374 378
374 380
375 376
375 377
375 378
376 377
395 376
378 377
377 379
395 377
378 379
378 380
380 379
379 381
395 379
380 381
381 382
394 381
395 381
382 383
394 382
383 384
394 383
393 383
384 385
392 384
393 384
385 386
392 385
386 387
392 386
388 387
387 389
387 390
392 387
391 387
388 389
400 388
389 390
400 389
399 389
391 390
399 390
392 391
391 393
392 393
393 394
398 393
395 394
398 394
395 396
395 397
395 398
397 396
398 397
400 399
402 403
403 404
403 405
405 404
406 405
405 407
406 407
407 408
412 411
414 411
412 413
412 414
415 416
416 417
418 419
419 420
420 421
422 322
422 324
422 326
422 329
422 396
422 423
422 402
422 424
423 424
423 396
423 397
424 402
424 403
